
Gurobi 9.5.2 (mac64[arm]) logging started Fri Apr 28 12:59:05 2023

Set parameter LogFile to value "Java/output/pure_mip_2_machine/scenario_seed_4_nJob_20_machineCount_2/mip_increment_1/log.txt"
Gurobi Optimizer version 9.5.2 build v9.5.2rc0 (mac64[arm])
Thread count: 8 physical cores, 8 logical processors, using up to 8 threads
Optimize a model with 1150 rows, 10962 columns and 117031 nonzeros
Model fingerprint: 0xd1441cfb
Variable types: 0 continuous, 10962 integer (10962 binary)
Coefficient statistics:
  Matrix range     [1e+00, 1e+02]
  Objective range  [4e+00, 8e+05]
  Bounds range     [1e+00, 1e+00]
  RHS range        [1e+00, 1e+00]
Presolve removed 157 rows and 2926 columns
Presolve time: 0.13s
Presolved: 993 rows, 8036 columns, 86450 nonzeros
Variable types: 0 continuous, 8036 integer (8036 binary)

Root relaxation: objective 6.315592e+04, 5125 iterations, 0.22 seconds (0.46 work units)

    Nodes    |    Current Node    |     Objective Bounds      |     Work
 Expl Unexpl |  Obj  Depth IntInf | Incumbent    BestBd   Gap | It/Node Time

     0     0 63155.9231    0  156          - 63155.9231      -     -    0s
     0     0 64059.7910    0  229          - 64059.7910      -     -    0s
     0     0 64156.9519    0  238          - 64156.9519      -     -    0s
     0     0 64156.9519    0  236          - 64156.9519      -     -    0s
     0     0 64156.9519    0  236          - 64156.9519      -     -    0s
     0     0 64532.1394    0  235          - 64532.1394      -     -    1s
     0     0 64663.9670    0  273          - 64663.9670      -     -    1s
     0     0 64701.6920    0  254          - 64701.6920      -     -    1s
     0     0 64701.7418    0  255          - 64701.7418      -     -    1s
H    0     0                    183119.00000 65651.9382  64.1%     -    1s
H    0     0                    174942.00000 65651.9382  62.5%     -    1s
     0     0 65651.9382    0  299 174942.000 65651.9382  62.5%     -    1s
H    0     0                    174251.00000 65651.9382  62.3%     -    1s
H    0     0                    167153.00000 65651.9382  60.7%     -    1s
     0     0 65811.8213    0  290 167153.000 65811.8213  60.6%     -    1s
     0     0 65837.2487    0  294 167153.000 65837.2487  60.6%     -    1s
     0     0 65837.7603    0  302 167153.000 65837.7603  60.6%     -    1s
     0     0 66660.1916    0  335 167153.000 66660.1916  60.1%     -    2s
H    0     0                    163624.00000 66660.1916  59.3%     -    2s
     0     0 67043.4022    0  358 163624.000 67043.4022  59.0%     -    2s
     0     0 67083.4448    0  354 163624.000 67083.4448  59.0%     -    2s
     0     0 67089.7393    0  349 163624.000 67089.7393  59.0%     -    2s
     0     0 67751.8916    0  347 163624.000 67751.8916  58.6%     -    2s
     0     0 67799.5815    0  348 163624.000 67799.5815  58.6%     -    2s
     0     0 67859.0613    0  351 163624.000 67859.0613  58.5%     -    2s
     0     0 67950.5527    0  354 163624.000 67950.5527  58.5%     -    3s
H    0     0                    101089.00000 67950.5527  32.8%     -    3s
     0     0 67950.5527    0  359 101089.000 67950.5527  32.8%     -    3s
     0     0 67950.5527    0  358 101089.000 67950.5527  32.8%     -    3s
     0     0 68592.1670    0  357 101089.000 68592.1670  32.1%     -    3s
     0     0 68693.6003    0  391 101089.000 68693.6003  32.0%     -    3s
     0     0 68718.4661    0  392 101089.000 68718.4661  32.0%     -    3s
     0     0 68777.8498    0  398 101089.000 68777.8498  32.0%     -    3s
     0     0 68777.8498    0  396 101089.000 68777.8498  32.0%     -    3s
     0     0 68777.8498    0  404 101089.000 68777.8498  32.0%     -    3s
H    0     0                    97225.000000 69043.3699  29.0%     -    4s
     0     0 69048.0297    0  383 97225.0000 69048.0297  29.0%     -    4s
     0     0 69454.4233    0  403 97225.0000 69454.4233  28.6%     -    4s
     0     0 69501.4891    0  400 97225.0000 69501.4891  28.5%     -    4s
     0     0 69504.5713    0  418 97225.0000 69504.5713  28.5%     -    4s
     0     0 70325.7238    0  405 97225.0000 70325.7238  27.7%     -    4s
H    0     0                    97220.000000 70325.7238  27.7%     -    4s
H    0     0                    94527.000000 70506.0486  25.4%     -    4s
     0     0 70506.0502    0  394 94527.0000 70506.0502  25.4%     -    4s
     0     0 70532.9429    0  421 94527.0000 70532.9429  25.4%     -    5s
     0     0 70539.1978    0  414 94527.0000 70539.1978  25.4%     -    5s
     0     0 70541.7863    0  412 94527.0000 70541.7863  25.4%     -    5s
H    0     0                    92612.000000 71085.2715  23.2%     -    5s
     0     0 71085.3204    0  411 92612.0000 71085.3204  23.2%     -    5s
     0     0 71153.0233    0  444 92612.0000 71153.0233  23.2%     -    5s
     0     0 71199.9089    0  447 92612.0000 71199.9089  23.1%     -    6s
     0     0 71211.7764    0  453 92612.0000 71211.7764  23.1%     -    6s
     0     0 71216.3408    0  460 92612.0000 71216.3408  23.1%     -    6s
     0     0 71636.3830    0  447 92612.0000 71636.3830  22.6%     -    6s
     0     0 71705.7116    0  472 92612.0000 71705.7116  22.6%     -    6s
     0     0 71745.6866    0  483 92612.0000 71745.6866  22.5%     -    6s
     0     0 71754.6614    0  486 92612.0000 71754.6614  22.5%     -    7s
     0     0 71765.5726    0  480 92612.0000 71765.5726  22.5%     -    7s
     0     0 71771.3319    0  482 92612.0000 71771.3319  22.5%     -    7s
     0     0 72193.3911    0  453 92612.0000 72193.3911  22.0%     -    7s
H    0     0                    87516.000000 72193.3911  17.5%     -    7s
     0     0 72233.5171    0  451 87516.0000 72233.5171  17.5%     -    7s
     0     0 72249.9542    0  459 87516.0000 72249.9542  17.4%     -    8s
     0     0 72258.6610    0  485 87516.0000 72258.6610  17.4%     -    8s
     0     0 72261.0987    0  468 87516.0000 72261.0987  17.4%     -    8s
     0     0 72765.6585    0  426 87516.0000 72765.6585  16.9%     -    8s
     0     0 72765.6585    0  164 87516.0000 72765.6585  16.9%     -    8s
     0     0 72765.6585    0  248 87516.0000 72765.6585  16.9%     -    9s
     0     0 72765.6585    0  324 87516.0000 72765.6585  16.9%     -    9s
     0     0 72765.6585    0  391 87516.0000 72765.6585  16.9%     -    9s
     0     0 72779.2918    0  397 87516.0000 72779.2918  16.8%     -    9s
     0     0 72901.4089    0  392 87516.0000 72901.4089  16.7%     -   10s
     0     0 72949.6066    0  398 87516.0000 72949.6066  16.6%     -   10s
     0     0 72963.4853    0  401 87516.0000 72963.4853  16.6%     -   10s
     0     0 72964.8573    0  393 87516.0000 72964.8573  16.6%     -   10s
     0     0 72965.5309    0  385 87516.0000 72965.5309  16.6%     -   10s
     0     0 73270.5154    0  402 87516.0000 73270.5154  16.3%     -   10s
     0     0 73500.5103    0  405 87516.0000 73500.5103  16.0%     -   10s
H    0     0                    87501.000000 73500.5103  16.0%     -   10s
     0     0 73528.5490    0  403 87501.0000 73528.5490  16.0%     -   10s
     0     0 73532.9936    0  413 87501.0000 73532.9936  16.0%     -   10s
H    0     0                    86021.000000 73532.9936  14.5%     -   11s
     0     0 75039.9684    0  431 86021.0000 75039.9684  12.8%     -   11s
H    0     0                    86004.000000 75039.9684  12.7%     -   11s
     0     0 75674.7018    0  431 86004.0000 75674.7018  12.0%     -   11s
     0     0 75856.5828    0  412 86004.0000 75856.5828  11.8%     -   11s
     0     0 75900.9011    0  441 86004.0000 75900.9011  11.7%     -   11s
     0     0 75904.3834    0  439 86004.0000 75904.3834  11.7%     -   11s
H    0     0                    82646.000000 75904.3834  8.16%     -   11s
     0     0 76351.8547    0  440 82646.0000 76351.8547  7.62%     -   12s
H    0     0                    78686.000000 76351.8547  2.97%     -   12s
H    0     0                    76768.000000 76351.8547  0.54%     -   12s
     0     0 76412.8418    0  414 76768.0000 76412.8418  0.46%     -   12s
     0     0 76427.2857    0   65 76768.0000 76427.2857  0.44%     -   12s
     0     0 76427.2857    0   61 76768.0000 76427.2857  0.44%     -   12s
*    0     0               0    76488.000000 76488.0000  0.00%     -   12s

Cutting planes:
  Gomory: 1
  Cover: 4
  Clique: 67
  MIR: 107
  StrongCG: 60
  GUB cover: 89
  Zero half: 2
  Mod-K: 1
  RLT: 16

Explored 1 nodes (81192 simplex iterations) in 12.28 seconds (24.05 work units)
Thread count was 8 (of 8 available processors)

Solution count 10: 76488 76768 78686 ... 94527

Optimal solution found (tolerance 1.00e-04)
Best objective 7.648800000000e+04, best bound 7.648800000000e+04, gap 0.0000%
